c Sudoku solution
p cnf 729 0
242 0
274 0
295 0
314 0
337 0
359 0
376 0
391 0
454 0
483 0
523 0
571 0
624 0
631 0
643 0
363 0
679 0
686 0
733 0
213 0
798 0
844 0
784 0
934 0
164 0
594 0
858 0
953 0
945 0
348 0
155 0
325 0
382 0
966 0
896 0
873 0
193 0
999 0
977 0
772 0
885 0
981 0
862 0
715 0
726 0
839 0
665 0
618 0
912 0
928 0
475 0
588 0
535 0
468 0
441 0
552 0
657 0
546 0
569 0
517 0
497 0
692 0
811 0
827 0
121 0
229 0
132 0
238 0
116 0
147 0
256 0
261 0
178 0
189 0
287 0
419 0
436 0
422 0
749 0
751 0
767 0
